p cnf 63 110
1 2 3 4 5 0
1 2 3 -4 6 0
1 2 -3 4 6 0
1 2 -3 -4 5 0
1 -2 3 4 6 0
1 -2 3 -4 6 0
1 -2 -3 4 5 0
1 -2 -3 -4 6 0
-1 2 3 4 6 0
-1 2 3 -4 5 0
7 8 9 10 1 2 3 4 11 0
7 8 9 10 1 2 3 -4 12 0
7 8 9 10 1 2 -3 4 40 0
7 8 9 10 1 2 -3 -4 32 0
7 8 9 10 1 -2 3 4 13 0
7 8 9 10 1 -2 3 -4 13 0
7 8 9 10 1 -2 -3 4 13 0
7 8 9 10 1 -2 -3 -4 13 0
7 8 9 10 -1 2 3 4 13 0
7 8 9 10 -1 2 3 -4 13 0
7 8 9 -10 1 2 3 4 14 0
7 8 9 -10 1 2 3 -4 15 0
7 8 9 -10 1 2 -3 4 16 0
7 8 9 -10 1 2 -3 -4 17 0
7 8 9 -10 1 -2 3 4 13 0
7 8 9 -10 1 -2 3 -4 13 0
7 8 9 -10 1 -2 -3 4 13 0
7 8 9 -10 1 -2 -3 -4 13 0
7 8 9 -10 -1 2 3 4 13 0
7 8 9 -10 -1 2 3 -4 13 0
7 8 -9 10 1 2 3 4 41 0
7 8 -9 10 1 2 3 -4 18 0
7 8 -9 10 1 2 -3 4 19 0
7 8 -9 10 1 2 -3 -4 35 0
7 8 -9 10 1 -2 3 4 48 0
7 8 -9 10 1 -2 3 -4 33 0
7 8 -9 10 1 -2 -3 4 13 0
7 8 -9 10 1 -2 -3 -4 13 0
7 8 -9 10 -1 2 3 4 13 0
7 8 -9 10 -1 2 3 -4 13 0
7 8 -9 -10 1 2 3 4 28 0
7 8 -9 -10 1 2 3 -4 31 0
7 8 -9 -10 1 2 -3 4 20 0
7 8 -9 -10 1 2 -3 -4 21 0
7 8 -9 -10 1 -2 3 4 42 0
7 8 -9 -10 1 -2 3 -4 59 0
7 8 -9 -10 1 -2 -3 4 60 0
7 8 -9 -10 1 -2 -3 -4 13 0
7 8 -9 -10 -1 2 3 4 13 0
7 8 -9 -10 -1 2 3 -4 13 0
7 -8 9 10 1 2 3 4 55 0
7 -8 9 10 1 2 3 -4 34 0
7 -8 9 10 1 2 -3 4 59 0
7 -8 9 10 1 2 -3 -4 43 0
7 -8 9 10 1 -2 3 4 52 0
7 -8 9 10 1 -2 3 -4 53 0
7 -8 9 10 1 -2 -3 4 55 0
7 -8 9 10 1 -2 -3 -4 13 0
7 -8 9 10 -1 2 3 4 13 0
7 -8 9 10 -1 2 3 -4 13 0
7 -8 9 -10 1 2 3 4 13 0
7 -8 9 -10 1 2 3 -4 13 0
7 -8 9 -10 1 2 -3 4 29 0
7 -8 9 -10 1 2 -3 -4 51 0
7 -8 9 -10 1 -2 3 4 61 0
7 -8 9 -10 1 -2 3 -4 36 0
7 -8 9 -10 1 -2 -3 4 44 0
7 -8 9 -10 1 -2 -3 -4 33 0
7 -8 9 -10 -1 2 3 4 13 0
7 -8 9 -10 -1 2 3 -4 32 0
7 -8 -9 10 1 2 3 4 13 0
7 -8 -9 10 1 2 3 -4 13 0
7 -8 -9 10 1 2 -3 4 13 0
7 -8 -9 10 1 2 -3 -4 39 0
7 -8 -9 10 1 -2 3 4 29 0
7 -8 -9 10 1 -2 3 -4 45 0
7 -8 -9 10 1 -2 -3 4 38 0
7 -8 -9 10 1 -2 -3 -4 22 0
7 -8 -9 10 -1 2 3 4 24 0
7 -8 -9 10 -1 2 3 -4 26 0
7 -8 -9 -10 1 2 3 4 39 0
7 -8 -9 -10 1 2 3 -4 13 0
7 -8 -9 -10 1 2 -3 4 27 0
7 -8 -9 -10 1 2 -3 -4 39 0
7 -8 -9 -10 1 -2 3 4 13 0
7 -8 -9 -10 1 -2 3 -4 23 0
7 -8 -9 -10 1 -2 -3 4 62 0
7 -8 -9 -10 1 -2 -3 -4 30 0
7 -8 -9 -10 -1 2 3 4 54 0
7 -8 -9 -10 -1 2 3 -4 46 0
-7 8 9 10 1 2 3 4 13 0
-7 8 9 10 1 2 3 -4 13 0
-7 8 9 10 1 2 -3 4 13 0
-7 8 9 10 1 2 -3 -4 39 0
-7 8 9 10 1 -2 3 4 33 0
-7 8 9 10 1 -2 3 -4 56 0
-7 8 9 10 1 -2 -3 4 37 0
-7 8 9 10 1 -2 -3 -4 57 0
-7 8 9 10 -1 2 3 4 25 0
-7 8 9 10 -1 2 3 -4 47 0
-7 8 9 -10 1 2 3 4 13 0
-7 8 9 -10 1 2 3 -4 13 0
-7 8 9 -10 1 2 -3 4 13 0
-7 8 9 -10 1 2 -3 -4 13 0
-7 8 9 -10 1 -2 3 4 13 0
-7 8 9 -10 1 -2 3 -4 33 0
-7 8 9 -10 1 -2 -3 4 58 0
-7 8 9 -10 1 -2 -3 -4 63 0
-7 8 9 -10 -1 2 3 4 49 0
-7 8 9 -10 -1 2 3 -4 50 0
